p aux sp co 25
c graph contains 16 nodes
c
v  1 1 1
v  2 2 1
v  3 3 1
v  4 4 1
v  5 5 1
v  6 6 1
v  7 2 2
v  8 6 2
v  9 2 2
v 10 6 2
v 11 1 3
v 12 2 3
v 13 4 3
v 14 5 3
v 15 6 3
v 16 1 4
v 17 4 4
v 18 6 4
v 19 1 5
v 20 2 5
v 21 3 5
v 22 4 5
v 23 6 5
v 24 6 6

